(set-logic HORN)
(declare-fun state (Int (Array Int Int) (Array Int Int) (Array Int Int) (Array Int Int) (Array Int Int) (Array Int Int) Int Int (Array Int Int) (Array Int Int) Int Int (Array Int Int) (Array Int Int) Int Int Int Int Int Int Int Int Int Int Int Int Int Int Int Int Int Int Int Bool Bool Bool (Array Int Int)) Bool)
(assert (forall ((|A| Int) (|B| (Array Int Int)) (|C| (Array Int Int)) (|J1| (Array Int Int)) (|E| (Array Int Int)) (|F| (Array Int Int)) (|G| (Array Int Int)) (|K1| Int) (|I| Int) (|J| (Array Int Int)) (|K| (Array Int Int)) (|L1| Int) (|M| Int) (|N| (Array Int Int)) (|O| (Array Int Int)) (|P| Int) (|Q| Int) (|R| Int) (|S| Int) (|T| Int) (|U| Int) (|V| Int) (|W| Int) (|X| Int) (|Y| Int) (|Z| Int) (|A1| Int) (|B1| Int) (|C1| Int) (|D1| Int) (|E1| Int) (|F1| Int) (|G1| Int) (|H1| Int) (|I1| Bool) (|.loc.3| Bool) (|.loc.4| Bool) (|K1_0| (Array Int Int)) (|.x.151| (Array Int Int)) (|.x.149| Int) (|.x.147| (Array Int Int)) (|.x.145| Int) (|.x.143| (Array Int Int)) (|.x.141| (Array Int Int)) (|.x.137| Int) (|.x.139| (Array Int Int)) (|.loc.5| Bool) (|.loc.6| Bool) (|.x.169| Int) (|.x.159| Int) (|.x.170| Int) (|.x.138| (Array Int Int)) (|.x.142| (Array Int Int)) (|.x.150| (Array Int Int)) (|.x.153| Int) (|.x.163| Int) (|.x.156| Int) (|.x.146| (Array Int Int)) (|.x.140| (Array Int Int)) (|.x.152| Int) (|.x.165| Int) (|.x.164| Int) (|.x.155| Int) (|.x.168| Int) (|.x.154| Int) (|.x.161| Int) (|.x.144| Int) (|.x.148| Int) (|I1_4| Bool) (|.x.157| Int) (|.x.160| Int) (|.x.158| Int) (|.x.162| Int) (|.x.166| Int) (|.x.167| Int) (|.xtv.1| (Array Int Int))) (=> (and (and (not .loc.4) (not .loc.3)) (and (and (and (and (and (and (and (= B C) (not I1)) (= K1 I)) (= L1 M)) (= J1 E)) (= J K)) (= F G)) (= N O))) (state |A| |B| |C| |J1| |E| |F| |G| |K1| |I| |J| |K| |L1| |M| |N| |O| |P| |Q| |R| |S| |T| |U| |V| |W| |X| |Y| |Z| |A1| |B1| |C1| |D1| |E1| |F1| |G1| |H1| |I1| |.loc.3| |.loc.4| |K1_0|))))
(assert (forall ((|A| Int) (|B| (Array Int Int)) (|C| (Array Int Int)) (|J1| (Array Int Int)) (|E| (Array Int Int)) (|F| (Array Int Int)) (|G| (Array Int Int)) (|K1| Int) (|I| Int) (|J| (Array Int Int)) (|K| (Array Int Int)) (|L1| Int) (|M| Int) (|N| (Array Int Int)) (|O| (Array Int Int)) (|P| Int) (|Q| Int) (|R| Int) (|S| Int) (|T| Int) (|U| Int) (|V| Int) (|W| Int) (|X| Int) (|Y| Int) (|Z| Int) (|A1| Int) (|B1| Int) (|C1| Int) (|D1| Int) (|E1| Int) (|F1| Int) (|G1| Int) (|H1| Int) (|I1| Bool) (|.loc.3| Bool) (|.loc.4| Bool) (|K1_0| (Array Int Int)) (|.x.151| (Array Int Int)) (|.x.149| Int) (|.x.147| (Array Int Int)) (|.x.145| Int) (|.x.143| (Array Int Int)) (|.x.141| (Array Int Int)) (|.x.137| Int) (|.x.139| (Array Int Int)) (|.loc.5| Bool) (|.loc.6| Bool) (|.x.169| Int) (|.x.159| Int) (|.x.170| Int) (|.x.138| (Array Int Int)) (|.x.142| (Array Int Int)) (|.x.150| (Array Int Int)) (|.x.153| Int) (|.x.163| Int) (|.x.156| Int) (|.x.146| (Array Int Int)) (|.x.140| (Array Int Int)) (|.x.152| Int) (|.x.165| Int) (|.x.164| Int) (|.x.155| Int) (|.x.168| Int) (|.x.154| Int) (|.x.161| Int) (|.x.144| Int) (|.x.148| Int) (|I1_4| Bool) (|.x.157| Int) (|.x.160| Int) (|.x.158| Int) (|.x.162| Int) (|.x.166| Int) (|.x.167| Int) (|.xtv.1| (Array Int Int))) (=> (and (state |A| |B| |C| |J1| |E| |F| |G| |K1| |I| |J| |K| |L1| |M| |N| |O| |P| |Q| |R| |S| |T| |U| |V| |W| |X| |Y| |Z| |A1| |B1| |C1| |D1| |E1| |F1| |G1| |H1| |I1| |.loc.3| |.loc.4| |K1_0|) (let ((.def_49 (not .loc.3))) (let ((.def_97 (= .x.169 4))) (let ((.def_104 (+ .x.159 4))) (let ((.def_108 (select (select B .x.170) .def_104))) (let ((.def_111 (select (select N .def_108) (+ (select (select N .x.170) .def_104) 4)))) (let ((.def_113 (select (select B .def_108) (+ (select (select N .x.170) .def_104) 4)))) (let ((.def_143 (store K1_0 .x.153 1))) (let ((.def_144 (store .def_143 .x.163 1))) (let ((.def_252 (and (= .x.138 (store B .def_113 (store (select B .def_113) .def_111 (select (select .x.138 .def_113) .def_111)))) (and (= (store F .def_113 (store (select F .def_113) .def_111 4)) .x.142) (and (= .x.150 (store N .def_113 (store (select N .def_113) .def_111 (select (select .x.150 .def_113) .def_111)))) (and (= (store (store (store J .x.153 4) .x.163 8) .x.156 8) .x.146) (and (= (store .def_144 .x.156 1) .x.140) (and (= (select (select F .x.153) .x.152) 3) (and (= .x.169 (select (select .x.142 .x.165) .x.164)) (and (= (select (select .x.150 .x.170) .def_104) .x.155) (and (= .x.164 (select (select .x.150 .x.168) (+ .x.155 4))) (and (= .x.153 (select (select B .x.163) (+ .x.154 4))) (and (= .x.163 (select (select B .x.156) (+ .x.161 4))) (and (= .x.154 (select (select N .x.156) (+ .x.161 4))) (and (= (select (select F .x.163) .x.154) 2) (and (= (select (select F .x.156) .x.161) 1) (and (= .x.168 (select (select .x.138 .x.170) .def_104)) (and (= (select .def_143 .x.163) 0) (and (= (select K1_0 .x.153) 0) (and (= (select .def_144 .x.156) 0) (and (= .x.161 0) (and (not (= .x.163 0)) (and (not (= .x.156 0)) (and (= .x.154 0) (and (not (= .x.153 0)) (and (= .x.152 0) (and (= .x.159 .x.161) (and (= .x.170 .x.156) (and (= .x.165 (select (select .x.138 .x.168) (+ .x.155 4))) (and (= .x.152 (select (select N .x.163) (+ .x.154 4))) (and (not (<= .x.137 .x.163)) (and (not (<= .x.137 .x.153)) (not (<= .x.137 .x.156)))))))))))))))))))))))))))))))))) (let ((.def_262 (or I1 (and (= K1_0 (store J1 0 0)) (and (= .x.144 0) (= .x.148 0)))))) (let ((.def_266 (= U .x.157))) (let ((.def_298 (= I1 I1_4))) (let ((.def_320 (not .loc.6))) (and (and (not .loc.4) (and (= O .x.151) (and (= M .x.149) (and (= K .x.147) (and (= I .x.145) (and (= G .x.143) (and (= E .x.141) (and (= A .x.137) (= C .x.139))))))))) (or (or (and (and (not .loc.5) .loc.6) (or (and .def_49 (and (or I1 (not .def_97)) (and (or I1 .def_252) (and (and .def_262 I1_4) .def_266)))) (and (or I1 (and (= .x.140 (store (store (store J1 Q 0) A1 0) T 0)) (= .x.160 0))) (and (= B .x.138) (and (= F .x.142) (and (= K1 .x.144) (and (= J .x.146) (and (= L1 .x.148) (and (= N .x.150) (and (= V .x.158) (and (= W .x.159) (and (= Z .x.162) (and (= D1 .x.166) (and (= E1 .x.167) (and (= H1 .x.170) (and (and .loc.3 (or I1_4 (= .x.157 .x.160))) .def_298)))))))))))))))) (and (and .loc.5 (and .def_49 (and .def_266 (and .def_262 (and I1 I1_4))))) .def_320)) (and (or .def_252 I1_4) (and (or .def_97 I1_4) (and .def_320 (and .def_298 (and .loc.5 (and .def_49 (and .def_262 .def_266))))))))))))))))))))))) (state |.x.137| |.x.138| |.x.139| |.x.140| |.x.141| |.x.142| |.x.143| |.x.144| |.x.145| |.x.146| |.x.147| |.x.148| |.x.149| |.x.150| |.x.151| |.x.152| |.x.153| |.x.154| |.x.155| |.x.156| |.x.157| |.x.158| |.x.159| |.x.160| |.x.161| |.x.162| |.x.163| |.x.164| |.x.165| |.x.166| |.x.167| |.x.168| |.x.169| |.x.170| |I1_4| |.loc.5| |.loc.6| |.xtv.1|))))
(assert (forall ((|A| Int) (|B| (Array Int Int)) (|C| (Array Int Int)) (|J1| (Array Int Int)) (|E| (Array Int Int)) (|F| (Array Int Int)) (|G| (Array Int Int)) (|K1| Int) (|I| Int) (|J| (Array Int Int)) (|K| (Array Int Int)) (|L1| Int) (|M| Int) (|N| (Array Int Int)) (|O| (Array Int Int)) (|P| Int) (|Q| Int) (|R| Int) (|S| Int) (|T| Int) (|U| Int) (|V| Int) (|W| Int) (|X| Int) (|Y| Int) (|Z| Int) (|A1| Int) (|B1| Int) (|C1| Int) (|D1| Int) (|E1| Int) (|F1| Int) (|G1| Int) (|H1| Int) (|I1| Bool) (|.loc.3| Bool) (|.loc.4| Bool) (|K1_0| (Array Int Int)) (|.x.151| (Array Int Int)) (|.x.149| Int) (|.x.147| (Array Int Int)) (|.x.145| Int) (|.x.143| (Array Int Int)) (|.x.141| (Array Int Int)) (|.x.137| Int) (|.x.139| (Array Int Int)) (|.loc.5| Bool) (|.loc.6| Bool) (|.x.169| Int) (|.x.159| Int) (|.x.170| Int) (|.x.138| (Array Int Int)) (|.x.142| (Array Int Int)) (|.x.150| (Array Int Int)) (|.x.153| Int) (|.x.163| Int) (|.x.156| Int) (|.x.146| (Array Int Int)) (|.x.140| (Array Int Int)) (|.x.152| Int) (|.x.165| Int) (|.x.164| Int) (|.x.155| Int) (|.x.168| Int) (|.x.154| Int) (|.x.161| Int) (|.x.144| Int) (|.x.148| Int) (|I1_4| Bool) (|.x.157| Int) (|.x.160| Int) (|.x.158| Int) (|.x.162| Int) (|.x.166| Int) (|.x.167| Int) (|.xtv.1| (Array Int Int))) (=> (state |A| |B| |C| |J1| |E| |F| |G| |K1| |I| |J| |K| |L1| |M| |N| |O| |P| |Q| |R| |S| |T| |U| |V| |W| |X| |Y| |Z| |A1| |B1| |C1| |D1| |E1| |F1| |G1| |H1| |I1| |.loc.3| |.loc.4| |K1_0|) (not (and I1 (and .loc.4 (not .loc.3)))))))
(check-sat)
